NAME : gr202
TYPE : TSP
COMMENT : 202-city problem (Groetschel)
DIMENSION : 202
EDGE_WEIGHT_TYPE : EUC_2D
NODE_COORD_SECTION
1 40 46
2 40 47
3 41 46
4 41 47
5 42 46
6 42 47
7 42 48
8 42 49
9 43 47
10 43 48
11 43 49
12 43 50
13 44 46
14 44 47
15 44 48
16 44 49
17 44 50
18 44 51
19 45 46
20 45 47
21 45 48
22 45 49
23 45 50
24 45 51
25 45 52
26 45 53
27 46 47
28 46 48
29 46 49
30 46 50
31 46 51
32 46 52
33 46 53
34 46 54
35 46 55
36 46 56
37 46 57
38 46 58
39 46 59
40 46 60
41 46 61
42 46 62
43 46 63
44 46 64
45 46 65
46 46 66
47 46 67
48 46 68
49 46 69
50 46 70
51 46 71
52 46 72
53 46 73
54 46 74
55 46 75
56 46 76
57 46 77
58 46 78
59 46 79
60 46 80
61 46 81
62 46 82
63 46 83
64 46 84
65 46 85
66 46 86
67 46 87
68 46 88
69 46 89
70 46 90
71 46 91
72 46 92
73 46 93
74 46 94
75 46 95
76 46 96
77 46 97
78 46 98
79 46 99
80 46 100
81 46 101
82 46 102
83 46 103
84 46 104
85 46 105
86 46 106
87 46 107
88 46 108
89 46 109
90 46 110
91 46 111
92 46 112
93 46 113
94 46 114
95 46 115
96 46 116
97 46 117
98 46 118
99 46 119
100 46 120
101 46 121
102 46 122
103 46 123
104 46 124
105 46 125
106 46 126
107 46 127
108 46 128
109 46 129
110 46 130
111 46 131
112 46 132
113 46 133
114 46 134
115 46 135
116 46 136
117 46 137
118 46 138
119 46 139
120 46 140
121 46 141
122 46 142
123 46 143
124 46 144
125 46 145
126 46 146
127 46 147
128 46 148
129 46 149
130 46 150
131 46 151
132 46 152
133 46 153
134 46 154
135 46 155
136 46 156
137 46 157
138 46 158
139 46 159
140 46 160
141 46 161
142 46 162
143 46 163
144 46 164
145 46 165
146 46 166
147 46 167
148 46 168
149 46 169
150 46 170
151 46 171
152 46 172
153 46 173
154 46 174
155 46 175
156 46 176
157 46 177
158 46 178
159 46 179
160 46 180
161 46 181
162 46 182
163 46 183
164 46 184
165 46 185
166 46 186
167 46 187
168 46 188
169 46 189
170 46 190
171 46 191
172 46 192
173 46 193
174 46 194
175 46 195
176 46 196
177 46 197
178 46 198
179 46 199
180 46 200
181 46 201
182 46 202
183 46 203
184 46 204
185 46 205
186 46 206
187 46 207
188 46 208
189 46 209
190 46 210
191 46 211
192 46 212
193 46 213
194 46 214
195 46 215
196 46 216
197 46 217
198 46 218
199 46 219
200 46 220
201 46 221
202 46 222
EOF
